NAME: tsp_26
COMMENT: Random TSP instance
TYPE: TSP
DIMENSION: 50
EDGE_WEIGHT_TYPE: EUC_2D
NODE_COORD_SECTION
1 825 360
2 68 112
3 826 935
4 323 392
5 582 554
6 868 832
7 729 525
8 645 561
9 785 555
10 512 451
11 650 868
12 573 489
13 735 968
14 347 940
15 457 298
16 817 966
17 207 395
18 438 861
19 677 712
20 938 671
21 789 484
22 204 565
23 381 922
24 284 510
25 611 809
26 449 545
27 933 382
28 698 192
29 788 844
30 304 500
31 312 477
32 730 322
33 302 758
34 617 971
35 24 266
36 57 385
37 115 928
38 352 811
39 509 218
40 281 754
41 196 746
42 776 396
43 945 536
44 638 481
45 892 694
46 276 130
47 564 279
48 36 958
49 149 166
50 433 618
